Route #1: 1 1 16 33 8 11 21 29 20 15 1 
Route #2: 1 19 36 5 3 30 38 14 6 45 23 9 28 41 1 
Route #3: 1 34 31 27 42 35 18 24 1 
Route #4: 1 40 17 43 13 4 32 1 
Route #5: 1 39 22 7 10 12 1 
Route #6: 1 25 44 37 2 1 
Route #7: 1 26 1 

Cost 1458.71
Time 0.3340


 * Another infos *

 Iterations: 46 Time: 0.3340 sec - 0.0056 min - 0.0001 horas
0.0000 h 0.0056 min
Problem dimension: 46
